(set-logic QF_S)
(declare-fun var_0xINPUT_48069 () String)
(assert (and (= (len var_0xINPUT_48069) 0) (= (len var_0xINPUT_48069) 0) (not (= var_0xINPUT_48069 "Example:")) (not (= var_0xINPUT_48069 "CQALcCP5TB"))))
(check-sat var_0xINPUT_48069)